1 -1 2 0
1 2 3 0
1 4 -5 0
1 -4 -6 0
1 -7 8 0
1 7 5 0
1 7 -9 0
1 -7 -10 0
1 -7 -11 0
1 7 -12 0
1 -7 -4 0
1 -7 3 0
1 13 14 0
1 -13 7 0
1 13 15 0
1 13 -16 0
1 -13 -17 0
1 -3 18 0
1 3 19 0
1 3 -2 0
1 -3 16 0
1 -3 -4 0
1 -10 18 0
1 10 7 0
1 10 -2 0
1 -10 -20 0
1 -21 18 0
1 -21 -22 0
1 -21 16 0
1 -21 -20 0
1 21 -4 0
1 -21 -1 0
1 -21 -23 0
1 17 -8 0
1 -17 5 0
1 -17 -11 0
1 -17 -3 0
1 -14 22 0
1 -14 13 0
1 -14 11 0
1 14 -12 0
1 -14 -3 0
1 24 5 0
1 -24 -13 0
1 -24 -11 0
1 -24 12 0
1 -24 -20 0
1 19 25 0
1 19 -26 0
1 19 -11 0
1 19 -12 0
1 19 -27 0
1 -12 -28 0
1 -12 -19 0
1 12 29 0
1 -12 30 0
1 -12 31 0
1 -12 -32 0
1 -5 -33 0
1 -5 34 0
1 -5 -19 0
1 -5 7 0
1 -5 29 0
1 5 -31 0
1 5 -17 0
1 -5 4 0
1 -11 8 0
1 11 -18 0
1 -11 -19 0
1 11 -7 0
1 11 35 0
1 -11 -16 0
1 8 -19 0
1 8 -7 0
1 8 -11 0
1 -8 4 0
1 8 -36 0
1 31 28 0
1 -31 -5 0
1 -31 25 0
1 31 26 0
1 31 27 0
1 31 -37 0
1 -28 25 0
1 28 -12 0
1 28 37 0
1 -30 33 0
1 30 5 0
1 -30 25 0
1 -30 38 0
1 30 12 0
1 30 27 0
1 33 -5 0
1 33 25 0
1 33 26 0
1 33 -30 0
1 33 -27 0
1 -33 -37 0
1 37 33 0
1 37 -28 0
1 37 31 0
1 37 -39 0
1 -26 -33 0
1 -26 40 0
1 -26 41 0
1 -26 30 0
1 26 -31 0
1 26 24 0
1 26 37 0
1 26 39 0
1 -27 33 0
1 27 28 0
1 -27 -31 0
1 27 39 0
1 -27 -42 0
1 -27 -36 0
1 -25 -28 0
1 25 19 0
1 -25 -41 0
1 -25 43 0
1 25 29 0
1 -25 31 0
1 -25 24 0
1 -25 42 0
1 -25 -36 0
1 -44 -45 0
1 -44 -46 0
1 44 -1 0
1 -45 46 0
1 -6 47 0
1 -6 -48 0
1 6 -9 0
1 6 49 0
1 6 4 0
1 9 -47 0
1 9 48 0
1 9 -50 0
1 9 -51 0
1 9 -46 0
1 9 -6 0
1 -48 52 0
1 -48 22 0
1 -48 -9 0
1 -48 53 0
1 -48 -54 0
1 48 6 0
1 53 -52 0
1 -53 -22 0
1 -53 -9 0
1 -53 -45 0
1 53 -20 0
1 47 -9 0
1 47 45 0
1 47 46 0
1 47 6 0
1 -47 44 0
1 -46 47 0
1 -46 9 0
1 -46 -45 0
1 46 6 0
1 54 48 0
1 -54 -17 0
1 22 -51 0
1 22 -10 0
1 20 55 0
1 -20 -10 0
1 20 -49 0
1 20 -56 0
1 -20 21 0
1 52 -48 0
1 -52 57 0
1 -52 53 0
1 52 58 0
1 -52 -21 0
1 51 -59 0
1 -51 60 0
1 51 -52 0
1 -51 22 0
1 -51 61 0
1 -51 9 0
1 51 -62 0
1 -51 -16 0
1 51 -20 0
1 -63 59 0
1 63 60 0
1 63 51 0
1 -63 -38 0
1 -63 20 0
1 -63 6 0
1 50 59 0
1 50 52 0
1 -50 -64 0
1 50 -22 0
1 50 -20 0
1 49 -65 0
1 49 54 0
1 -49 6 0
1 -16 -8 0
1 -16 18 0
1 -16 -51 0
1 16 57 0
1 16 10 0
1 -16 -13 0
1 -16 31 0
1 16 -63 0
1 16 58 0
1 -16 56 0
1 -16 -21 0
1 16 -3 0
1 18 8 0
1 -18 -10 0
1 -18 13 0
1 -18 11 0
1 18 -58 0
1 18 -56 0
1 18 -3 0
1 -38 8 0
1 38 -60 0
1 38 -51 0
1 -38 -57 0
1 38 -66 0
1 38 -15 0
1 -38 63 0
1 38 56 0
1 60 -67 0
1 -60 -33 0
1 60 51 0
1 60 -38 0
1 60 -56 0
1 -57 18 0
1 -57 -52 0
1 -57 -43 0
1 57 68 0
1 57 -38 0
1 57 16 0
1 -57 20 0
1 -57 -56 0
1 57 42 0
1 57 36 0
1 56 60 0
1 -56 -18 0
1 56 -29 0
1 -56 16 0
1 -56 20 0
1 56 -69 0
1 56 -42 0
1 55 59 0
1 -55 -60 0
1 -55 -52 0
1 55 -62 0
1 55 -16 0
1 55 -20 0
1 55 -58 0
1 55 69 0
1 55 -70 0
1 58 59 0
1 58 -52 0
1 -58 38 0
1 -58 16 0
1 -29 8 0
1 29 -5 0
1 -29 -11 0
1 -29 -12 0
1 29 56 0
1 36 67 0
1 -36 5 0
1 -36 -25 0
1 36 15 0
1 -36 23 0
1 -43 -34 0
1 43 25 0
1 43 -57 0
1 43 -71 0
1 43 66 0
1 43 15 0
1 -43 -27 0
1 43 42 0
1 43 23 0
1 42 -67 0
1 -42 25 0
1 -42 -57 0
1 -42 -43 0
1 -42 66 0
1 -42 27 0
1 -42 56 0
1 -15 -67 0
1 -15 -72 0
1 15 41 0
1 -15 43 0
1 -15 38 0
1 -15 73 0
1 15 -74 0
1 15 42 0
1 -67 -29 0
1 -67 15 0
1 67 -3 0
1 -67 42 0
1 67 36 0
1 66 -60 0
1 66 -72 0
1 -66 -75 0
1 -66 10 0
1 66 29 0
1 -66 -38 0
1 -66 -76 0
1 66 -69 0
1 -66 -36 0
1 23 -60 0
1 23 77 0
1 -23 -43 0
1 -23 -66 0
1 -23 -38 0
1 -23 73 0
1 23 76 0
1 23 69 0
1 23 42 0
1 41 -67 0
1 41 25 0
1 41 -34 0
1 -41 75 0
1 41 -35 0
1 41 -27 0
1 -39 67 0
1 -39 25 0
1 39 26 0
1 39 41 0
1 -39 35 0
1 -39 32 0
1 -39 -27 0
1 39 37 0
1 78 -79 0
1 78 -34 0
1 -78 -40 0
1 78 -77 0
1 78 35 0
1 -78 32 0
1 78 -80 0
1 74 -34 0
1 74 -81 0
1 74 -40 0
1 -74 -15 0
1 74 -35 0
1 -74 -82 0
1 32 34 0
1 -32 -41 0
1 32 43 0
1 -32 12 0
1 -32 -83 0
1 32 74 0
1 -32 42 0
1 34 43 0
1 34 -32 0
1 34 74 0
1 -35 84 0
1 -35 -41 0
1 35 -11 0
1 -35 -73 0
1 -35 -74 0
1 35 -42 0
1 -79 8 0
1 -79 -84 0
1 -79 -85 0
1 -79 -73 0
1 79 -74 0
1 -86 -81 0
1 86 72 0
1 -86 82 0
1 -83 32 0
1 -83 -73 0
1 83 -80 0
1 -87 34 0
1 -87 81 0
1 -87 84 0
1 87 32 0
1 -88 -87 0
1 -88 32 0
1 88 -85 0
1 80 87 0
1 80 86 0
1 -80 40 0
1 80 -78 0
1 -80 -83 0
1 80 -37 0
1 40 87 0
1 -40 -86 0
1 -40 -78 0
1 -40 88 0
1 40 -83 0
1 -40 -74 0
1 40 80 0
1 82 -87 0
1 -82 -78 0
1 82 -27 0
1 -81 25 0
1 -81 -74 0
1 -62 59 0
1 62 -89 0
1 62 90 0
1 62 50 0
1 -62 51 0
1 -62 -91 0
1 62 -58 0
1 59 -90 0
1 -59 -50 0
1 59 -55 0
1 -59 -62 0
1 -59 -91 0
1 -59 36 0
1 71 -89 0
1 -71 -90 0
1 71 -64 0
1 -71 -61 0
1 71 92 0
1 71 91 0
1 -71 65 0
1 -71 93 0
1 -71 70 0
1 -70 -89 0
1 70 90 0
1 -70 61 0
1 70 55 0
1 -70 -71 0
1 -70 91 0
1 70 -93 0
1 -90 -59 0
1 -90 -75 0
1 90 -91 0
1 90 -76 0
1 -90 69 0
1 91 -59 0
1 -91 -75 0
1 -91 71 0
1 91 -62 0
1 91 -76 0
1 89 -59 0
1 89 -47 0
1 89 62 0
1 92 89 0
1 -92 70 0
1 75 -90 0
1 75 64 0
1 75 -57 0
1 75 -91 0
1 75 -56 0
1 -75 69 0
1 -75 -23 0
1 -69 -90 0
1 -69 -64 0
1 -69 -56 0
1 69 -75 0
1 69 -91 0
1 69 -65 0
1 69 93 0
1 -69 -39 0
1 -69 23 0
1 77 64 0
1 -77 61 0
1 77 -78 0
1 -77 66 0
1 77 65 0
1 -77 -93 0
1 -77 76 0
1 -76 -90 0
1 -76 -64 0
1 76 94 0
1 76 -68 0
1 76 -65 0
1 76 93 0
1 61 93 0
1 61 84 0
1 61 -77 0
1 -61 73 0
1 -93 -84 0
1 93 75 0
1 93 71 0
1 93 -85 0
1 -93 -63 0
1 -93 69 0
1 93 -70 0
1 -64 -75 0
1 -64 -71 0
1 -64 65 0
1 65 64 0
1 -65 -71 0
1 -65 76 0
1 -65 70 0
1 -72 67 0
1 -72 79 0
1 -72 93 0
1 -72 61 0
1 -72 -94 0
1 -72 -66 0
1 72 -35 0
1 -72 -73 0
1 72 -23 0
1 -73 -67 0
1 73 61 0
1 73 -68 0
1 -73 -66 0
1 73 -83 0
1 -73 -93 0
1 84 79 0
1 84 87 0
1 84 -61 0
1 84 94 0
1 84 -68 0
1 84 -95 0
1 85 -84 0
1 -85 61 0
1 -85 94 0
1 85 -88 0
1 -85 -93 0
1 85 -95 0
1 -68 84 0
1 68 57 0
1 -68 85 0
1 -68 -73 0
1 -95 -72 0
1 -95 -77 0
1 95 68 0
1 -95 -73 0
1 -95 76 0
1 94 84 0
1 94 -72 0
1 -94 55 0
1 94 85 0
1 -94 73 0
1 94 -76 0
1 -96 84 0
1 -96 -72 0
1 96 -58 0
1 96 76 0
